
#(C) 2020 by FIZ Karlsruhe - Leibniz Institute for Information Infrastructure.  All rights reserved.
data_19024-ICSD
_database_code_ICSD 19024
_audit_creation_date 1980-01-01
_audit_update_record 1987-05-21
_chemical_name_common 'Dilithium calcium germanate'
_chemical_formula_structural 'Li2 Ca Ge O4'
_chemical_formula_sum 'Ca1 Ge1 Li2 O4'
_chemical_name_structure_type K3VO4
_exptl_crystal_density_diffrn 3.63
_citation_title

;
Preparation and crystal structure of Li2 Ca Si O4 and isostructural Li2 Ca Ge
O4
;
loop_
_citation_id
_citation_journal_full
_citation_year
_citation_journal_volume
_citation_page_first
_citation_page_last
_citation_journal_id_ASTM
primary 'Journal of Solid State Chemistry' 1973 7 422 427 JSSCBI
loop_
_citation_author_citation_id
_citation_author_name
primary 'Gard, J.A.'
primary 'West, A.R.'
_cell_length_a 5.141(2)
_cell_length_b 5.141(2)
_cell_length_c 6.595(2)
_cell_angle_alpha 90.
_cell_angle_beta 90.
_cell_angle_gamma 90.
_cell_volume 174.31
_cell_formula_units_Z 2
_space_group_name_H-M_alt 'I -4 2 m'
_space_group_IT_number 121
loop_
_space_group_symop_id
_space_group_symop_operation_xyz
1 '-y, -x, z'
2 'y, x, z'
3 'y, -x, -z'
4 '-y, x, -z'
5 'x, -y, -z'
6 '-x, y, -z'
7 '-x, -y, z'
8 'x, y, z'
9 '-y+1/2, -x+1/2, z+1/2'
10 'y+1/2, x+1/2, z+1/2'
11 'y+1/2, -x+1/2, -z+1/2'
12 '-y+1/2, x+1/2, -z+1/2'
13 'x+1/2, -y+1/2, -z+1/2'
14 '-x+1/2, y+1/2, -z+1/2'
15 '-x+1/2, -y+1/2, z+1/2'
16 'x+1/2, y+1/2, z+1/2'
loop_
_atom_type_symbol
_atom_type_oxidation_number
Li1+ 1
Ca2+ 2
Ge4+ 4
O2- -2
loop_
_atom_site_label
_atom_site_type_symbol
_atom_site_symmetry_multiplicity
_atom_site_Wyckoff_symbol
_atom_site_fract_x
_atom_site_fract_y
_atom_site_fract_z
_atom_site_B_iso_or_equiv
_atom_site_occupancy
Li1 Li1+ 4 d 0 0.5 0.25 1.68 1.
Ca1 Ca2+ 2 b 0 0 0.5 0.428 1.
Ge1 Ge4+ 2 a 0 0 0 0.684 1.
O1 O2- 8 i 0.199(3) 0.199(3) 0.149(3) 0.144 1.
#End of TTdata_19024-ICSD